TCS_Benchmarks/redos_fix/corpus1_output_distinct_3635_3634_16_0.smt2
(set-logic QF_S)
(declare-const x String)
(assert (str.in.re x (re.inter  (re.++ (re.+ (re.union (re.range "\u{00}" "\u{09}") (re.range "\u{0b}" "\u{0c}") (re.range "\u{0e}" "\u{84}") (re.range "\u{86}" "\u{ff}")) ) (re.+  (re.union  (str.to.re "\u{20}") (re.union  (str.to.re "\u{5c}") (re.union  (str.to.re "\u{27}") (re.union (re.union (re.range "\u{30}" "\u{39}") (re.range "\u{41}" "\u{5a}") (re.range "\u{5f}" "\u{5f}") (re.range "\u{61}" "\u{7a}") (re.range "\u{aa}" "\u{aa}") (re.range "\u{b5}" "\u{b5}") (re.range "\u{ba}" "\u{ba}") (re.range "\u{c0}" "\u{d6}") (re.range "\u{d8}" "\u{f6}") (re.range "\u{f8}" "\u{ff}")) (re.union  (str.to.re "\u{28}")  (str.to.re "\u{29}")))))) ))  (re.++ (re.+ (re.union (re.range "\u{00}" "\u{09}") (re.range "\u{0b}" "\u{0c}") (re.range "\u{0e}" "\u{84}") (re.range "\u{86}" "\u{ff}")) ) (re.++  (re.++  (str.to.re "\u{55}") (re.++  (str.to.re "\u{4e}") (re.++  (str.to.re "\u{49}") (re.++  (str.to.re "\u{54}") (re.++ (re.opt  (str.to.re "\u{20}") ) (re.++  (str.to.re "\u{5b}") (re.++  (str.to.re "\u{22}") (re.++ (re.+  (re.union  (str.to.re "\u{20}") (re.union  (str.to.re "\u{5c}") (re.union  (str.to.re "\u{27}") (re.union (re.union (re.range "\u{30}" "\u{39}") (re.range "\u{41}" "\u{5a}") (re.range "\u{5f}" "\u{5f}") (re.range "\u{61}" "\u{7a}") (re.range "\u{aa}" "\u{aa}") (re.range "\u{b5}" "\u{b5}") (re.range "\u{ba}" "\u{ba}") (re.range "\u{c0}" "\u{d6}") (re.range "\u{d8}" "\u{f6}") (re.range "\u{f8}" "\u{ff}")) (re.union  (str.to.re "\u{28}")  (str.to.re "\u{29}")))))) ) (re.++  (str.to.re "\u{22}") (re.++  (str.to.re "\u{2c}") (re.++ (re.opt  (str.to.re "\u{20}") ) (re.++ (re.+  (re.union  (str.to.re "\u{2e}") (re.range "\u{30}" "\u{39}")) ) (re.++  (str.to.re "\u{2c}") (re.++  (str.to.re "\u{41}") (re.++  (str.to.re "\u{55}") (re.++  (str.to.re "\u{54}") (re.++  (str.to.re "\u{48}") (re.++  (str.to.re "\u{4f}") (re.++  (str.to.re "\u{52}") (re.++  (str.to.re "\u{49}") (re.++  (str.to.re "\u{54}") (re.++  (str.to.re "\u{59}") (re.++  (str.to.re "\u{5b}")  (str.to.re "\u{22}")))))))))))))))))))))))) (re.+  (re.union  (str.to.re "\u{20}") (re.union  (str.to.re "\u{5c}") (re.union  (str.to.re "\u{27}") (re.union (re.union (re.range "\u{30}" "\u{39}") (re.range "\u{41}" "\u{5a}") (re.range "\u{5f}" "\u{5f}") (re.range "\u{61}" "\u{7a}") (re.range "\u{aa}" "\u{aa}") (re.range "\u{b5}" "\u{b5}") (re.range "\u{ba}" "\u{ba}") (re.range "\u{c0}" "\u{d6}") (re.range "\u{d8}" "\u{f6}") (re.range "\u{f8}" "\u{ff}")) (re.union  (str.to.re "\u{28}")  (str.to.re "\u{29}")))))) ))) )))
(check-sat)
(get-model)