TCS_Benchmarks/redos_fix/corpus1_output_distinct_3635_3634_16_0.txt
(.+)([ \\'\w\(\)]+)
(.+)(UNIT ?\["([ \\'\w\(\)]+)", ?([\.\d]+),AUTHORITY\[")([ \\'\w\(\)]+)